p cnf 540 640
39 40 1 61 62 0
39 40 1 61 -62 0
39 40 1 -61 63 0
39 40 1 -61 -63 0
-39 -40 1 64 65 0
-39 -40 1 64 -65 0
-39 -40 1 -64 66 0
-39 -40 1 -64 -66 0
39 -40 -1 67 68 0
39 -40 -1 67 -68 0
39 -40 -1 -67 69 0
39 -40 -1 -67 -69 0
-39 40 -1 70 71 0
-39 40 -1 70 -71 0
-39 40 -1 -70 72 0
-39 40 -1 -70 -72 0
1 41 2 73 74 0
1 41 2 73 -74 0
1 41 2 -73 75 0
1 41 2 -73 -75 0
-1 -41 2 76 77 0
-1 -41 2 76 -77 0
-1 -41 2 -76 78 0
-1 -41 2 -76 -78 0
1 -41 -2 79 80 0
1 -41 -2 79 -80 0
1 -41 -2 -79 81 0
1 -41 -2 -79 -81 0
-1 41 -2 82 83 0
-1 41 -2 82 -83 0
-1 41 -2 -82 84 0
-1 41 -2 -82 -84 0
2 42 3 85 86 0
2 42 3 85 -86 0
2 42 3 -85 87 0
2 42 3 -85 -87 0
-2 -42 3 88 89 0
-2 -42 3 88 -89 0
-2 -42 3 -88 90 0
-2 -42 3 -88 -90 0
2 -42 -3 91 92 0
2 -42 -3 91 -92 0
2 -42 -3 -91 93 0
2 -42 -3 -91 -93 0
-2 42 -3 94 95 0
-2 42 -3 94 -95 0
-2 42 -3 -94 96 0
-2 42 -3 -94 -96 0
3 43 4 97 98 0
3 43 4 97 -98 0
3 43 4 -97 99 0
3 43 4 -97 -99 0
-3 -43 4 100 101 0
-3 -43 4 100 -101 0
-3 -43 4 -100 102 0
-3 -43 4 -100 -102 0
3 -43 -4 103 104 0
3 -43 -4 103 -104 0
3 -43 -4 -103 105 0
3 -43 -4 -103 -105 0
-3 43 -4 106 107 0
-3 43 -4 106 -107 0
-3 43 -4 -106 108 0
-3 43 -4 -106 -108 0
4 44 5 109 110 0
4 44 5 109 -110 0
4 44 5 -109 111 0
4 44 5 -109 -111 0
-4 -44 5 112 113 0
-4 -44 5 112 -113 0
-4 -44 5 -112 114 0
-4 -44 5 -112 -114 0
4 -44 -5 115 116 0
4 -44 -5 115 -116 0
4 -44 -5 -115 117 0
4 -44 -5 -115 -117 0
-4 44 -5 118 119 0
-4 44 -5 118 -119 0
-4 44 -5 -118 120 0
-4 44 -5 -118 -120 0
5 45 6 121 122 0
5 45 6 121 -122 0
5 45 6 -121 123 0
5 45 6 -121 -123 0
-5 -45 6 124 125 0
-5 -45 6 124 -125 0
-5 -45 6 -124 126 0
-5 -45 6 -124 -126 0
5 -45 -6 127 128 0
5 -45 -6 127 -128 0
5 -45 -6 -127 129 0
5 -45 -6 -127 -129 0
-5 45 -6 130 131 0
-5 45 -6 130 -131 0
-5 45 -6 -130 132 0
-5 45 -6 -130 -132 0
6 46 7 133 134 0
6 46 7 133 -134 0
6 46 7 -133 135 0
6 46 7 -133 -135 0
-6 -46 7 136 137 0
-6 -46 7 136 -137 0
-6 -46 7 -136 138 0
-6 -46 7 -136 -138 0
6 -46 -7 139 140 0
6 -46 -7 139 -140 0
6 -46 -7 -139 141 0
6 -46 -7 -139 -141 0
-6 46 -7 142 143 0
-6 46 -7 142 -143 0
-6 46 -7 -142 144 0
-6 46 -7 -142 -144 0
7 47 8 145 146 0
7 47 8 145 -146 0
7 47 8 -145 147 0
7 47 8 -145 -147 0
-7 -47 8 148 149 0
-7 -47 8 148 -149 0
-7 -47 8 -148 150 0
-7 -47 8 -148 -150 0
7 -47 -8 151 152 0
7 -47 -8 151 -152 0
7 -47 -8 -151 153 0
7 -47 -8 -151 -153 0
-7 47 -8 154 155 0
-7 47 -8 154 -155 0
-7 47 -8 -154 156 0
-7 47 -8 -154 -156 0
8 48 9 157 158 0
8 48 9 157 -158 0
8 48 9 -157 159 0
8 48 9 -157 -159 0
-8 -48 9 160 161 0
-8 -48 9 160 -161 0
-8 -48 9 -160 162 0
-8 -48 9 -160 -162 0
8 -48 -9 163 164 0
8 -48 -9 163 -164 0
8 -48 -9 -163 165 0
8 -48 -9 -163 -165 0
-8 48 -9 166 167 0
-8 48 -9 166 -167 0
-8 48 -9 -166 168 0
-8 48 -9 -166 -168 0
9 49 10 169 170 0
9 49 10 169 -170 0
9 49 10 -169 171 0
9 49 10 -169 -171 0
-9 -49 10 172 173 0
-9 -49 10 172 -173 0
-9 -49 10 -172 174 0
-9 -49 10 -172 -174 0
9 -49 -10 175 176 0
9 -49 -10 175 -176 0
9 -49 -10 -175 177 0
9 -49 -10 -175 -177 0
-9 49 -10 178 179 0
-9 49 -10 178 -179 0
-9 49 -10 -178 180 0
-9 49 -10 -178 -180 0
10 50 11 181 182 0
10 50 11 181 -182 0
10 50 11 -181 183 0
10 50 11 -181 -183 0
-10 -50 11 184 185 0
-10 -50 11 184 -185 0
-10 -50 11 -184 186 0
-10 -50 11 -184 -186 0
10 -50 -11 187 188 0
10 -50 -11 187 -188 0
10 -50 -11 -187 189 0
10 -50 -11 -187 -189 0
-10 50 -11 190 191 0
-10 50 -11 190 -191 0
-10 50 -11 -190 192 0
-10 50 -11 -190 -192 0
11 51 12 193 194 0
11 51 12 193 -194 0
11 51 12 -193 195 0
11 51 12 -193 -195 0
-11 -51 12 196 197 0
-11 -51 12 196 -197 0
-11 -51 12 -196 198 0
-11 -51 12 -196 -198 0
11 -51 -12 199 200 0
11 -51 -12 199 -200 0
11 -51 -12 -199 201 0
11 -51 -12 -199 -201 0
-11 51 -12 202 203 0
-11 51 -12 202 -203 0
-11 51 -12 -202 204 0
-11 51 -12 -202 -204 0
12 52 13 205 206 0
12 52 13 205 -206 0
12 52 13 -205 207 0
12 52 13 -205 -207 0
-12 -52 13 208 209 0
-12 -52 13 208 -209 0
-12 -52 13 -208 210 0
-12 -52 13 -208 -210 0
12 -52 -13 211 212 0
12 -52 -13 211 -212 0
12 -52 -13 -211 213 0
12 -52 -13 -211 -213 0
-12 52 -13 214 215 0
-12 52 -13 214 -215 0
-12 52 -13 -214 216 0
-12 52 -13 -214 -216 0
13 53 14 217 218 0
13 53 14 217 -218 0
13 53 14 -217 219 0
13 53 14 -217 -219 0
-13 -53 14 220 221 0
-13 -53 14 220 -221 0
-13 -53 14 -220 222 0
-13 -53 14 -220 -222 0
13 -53 -14 223 224 0
13 -53 -14 223 -224 0
13 -53 -14 -223 225 0
13 -53 -14 -223 -225 0
-13 53 -14 226 227 0
-13 53 -14 226 -227 0
-13 53 -14 -226 228 0
-13 53 -14 -226 -228 0
14 54 15 229 230 0
14 54 15 229 -230 0
14 54 15 -229 231 0
14 54 15 -229 -231 0
-14 -54 15 232 233 0
-14 -54 15 232 -233 0
-14 -54 15 -232 234 0
-14 -54 15 -232 -234 0
14 -54 -15 235 236 0
14 -54 -15 235 -236 0
14 -54 -15 -235 237 0
14 -54 -15 -235 -237 0
-14 54 -15 238 239 0
-14 54 -15 238 -239 0
-14 54 -15 -238 240 0
-14 54 -15 -238 -240 0
15 55 16 241 242 0
15 55 16 241 -242 0
15 55 16 -241 243 0
15 55 16 -241 -243 0
-15 -55 16 244 245 0
-15 -55 16 244 -245 0
-15 -55 16 -244 246 0
-15 -55 16 -244 -246 0
15 -55 -16 247 248 0
15 -55 -16 247 -248 0
15 -55 -16 -247 249 0
15 -55 -16 -247 -249 0
-15 55 -16 250 251 0
-15 55 -16 250 -251 0
-15 55 -16 -250 252 0
-15 55 -16 -250 -252 0
16 56 17 253 254 0
16 56 17 253 -254 0
16 56 17 -253 255 0
16 56 17 -253 -255 0
-16 -56 17 256 257 0
-16 -56 17 256 -257 0
-16 -56 17 -256 258 0
-16 -56 17 -256 -258 0
16 -56 -17 259 260 0
16 -56 -17 259 -260 0
16 -56 -17 -259 261 0
16 -56 -17 -259 -261 0
-16 56 -17 262 263 0
-16 56 -17 262 -263 0
-16 56 -17 -262 264 0
-16 56 -17 -262 -264 0
17 57 18 265 266 0
17 57 18 265 -266 0
17 57 18 -265 267 0
17 57 18 -265 -267 0
-17 -57 18 268 269 0
-17 -57 18 268 -269 0
-17 -57 18 -268 270 0
-17 -57 18 -268 -270 0
17 -57 -18 271 272 0
17 -57 -18 271 -272 0
17 -57 -18 -271 273 0
17 -57 -18 -271 -273 0
-17 57 -18 274 275 0
-17 57 -18 274 -275 0
-17 57 -18 -274 276 0
-17 57 -18 -274 -276 0
18 58 19 277 278 0
18 58 19 277 -278 0
18 58 19 -277 279 0
18 58 19 -277 -279 0
-18 -58 19 280 281 0
-18 -58 19 280 -281 0
-18 -58 19 -280 282 0
-18 -58 19 -280 -282 0
18 -58 -19 283 284 0
18 -58 -19 283 -284 0
18 -58 -19 -283 285 0
18 -58 -19 -283 -285 0
-18 58 -19 286 287 0
-18 58 -19 286 -287 0
-18 58 -19 -286 288 0
-18 58 -19 -286 -288 0
19 59 60 289 290 0
19 59 60 289 -290 0
19 59 60 -289 291 0
19 59 60 -289 -291 0
-19 -59 60 292 293 0
-19 -59 60 292 -293 0
-19 -59 60 -292 294 0
-19 -59 60 -292 -294 0
19 -59 -60 295 296 0
19 -59 -60 295 -296 0
19 -59 -60 -295 297 0
19 -59 -60 -295 -297 0
-19 59 -60 298 299 0
-19 59 -60 298 -299 0
-19 59 -60 -298 300 0
-19 59 -60 -298 -300 0
20 59 60 301 302 0
20 59 60 301 -302 0
20 59 60 -301 303 0
20 59 60 -301 -303 0
-20 -59 60 304 305 0
-20 -59 60 304 -305 0
-20 -59 60 -304 306 0
-20 -59 60 -304 -306 0
20 -59 -60 307 308 0
20 -59 -60 307 -308 0
20 -59 -60 -307 309 0
20 -59 -60 -307 -309 0
-20 59 -60 310 311 0
-20 59 -60 310 -311 0
-20 59 -60 -310 312 0
-20 59 -60 -310 -312 0
21 58 20 313 314 0
21 58 20 313 -314 0
21 58 20 -313 315 0
21 58 20 -313 -315 0
-21 -58 20 316 317 0
-21 -58 20 316 -317 0
-21 -58 20 -316 318 0
-21 -58 20 -316 -318 0
21 -58 -20 319 320 0
21 -58 -20 319 -320 0
21 -58 -20 -319 321 0
21 -58 -20 -319 -321 0
-21 58 -20 322 323 0
-21 58 -20 322 -323 0
-21 58 -20 -322 324 0
-21 58 -20 -322 -324 0
22 57 21 325 326 0
22 57 21 325 -326 0
22 57 21 -325 327 0
22 57 21 -325 -327 0
-22 -57 21 328 329 0
-22 -57 21 328 -329 0
-22 -57 21 -328 330 0
-22 -57 21 -328 -330 0
22 -57 -21 331 332 0
22 -57 -21 331 -332 0
22 -57 -21 -331 333 0
22 -57 -21 -331 -333 0
-22 57 -21 334 335 0
-22 57 -21 334 -335 0
-22 57 -21 -334 336 0
-22 57 -21 -334 -336 0
23 56 22 337 338 0
23 56 22 337 -338 0
23 56 22 -337 339 0
23 56 22 -337 -339 0
-23 -56 22 340 341 0
-23 -56 22 340 -341 0
-23 -56 22 -340 342 0
-23 -56 22 -340 -342 0
23 -56 -22 343 344 0
23 -56 -22 343 -344 0
23 -56 -22 -343 345 0
23 -56 -22 -343 -345 0
-23 56 -22 346 347 0
-23 56 -22 346 -347 0
-23 56 -22 -346 348 0
-23 56 -22 -346 -348 0
24 55 23 349 350 0
24 55 23 349 -350 0
24 55 23 -349 351 0
24 55 23 -349 -351 0
-24 -55 23 352 353 0
-24 -55 23 352 -353 0
-24 -55 23 -352 354 0
-24 -55 23 -352 -354 0
24 -55 -23 355 356 0
24 -55 -23 355 -356 0
24 -55 -23 -355 357 0
24 -55 -23 -355 -357 0
-24 55 -23 358 359 0
-24 55 -23 358 -359 0
-24 55 -23 -358 360 0
-24 55 -23 -358 -360 0
25 54 24 361 362 0
25 54 24 361 -362 0
25 54 24 -361 363 0
25 54 24 -361 -363 0
-25 -54 24 364 365 0
-25 -54 24 364 -365 0
-25 -54 24 -364 366 0
-25 -54 24 -364 -366 0
25 -54 -24 367 368 0
25 -54 -24 367 -368 0
25 -54 -24 -367 369 0
25 -54 -24 -367 -369 0
-25 54 -24 370 371 0
-25 54 -24 370 -371 0
-25 54 -24 -370 372 0
-25 54 -24 -370 -372 0
26 53 25 373 374 0
26 53 25 373 -374 0
26 53 25 -373 375 0
26 53 25 -373 -375 0
-26 -53 25 376 377 0
-26 -53 25 376 -377 0
-26 -53 25 -376 378 0
-26 -53 25 -376 -378 0
26 -53 -25 379 380 0
26 -53 -25 379 -380 0
26 -53 -25 -379 381 0
26 -53 -25 -379 -381 0
-26 53 -25 382 383 0
-26 53 -25 382 -383 0
-26 53 -25 -382 384 0
-26 53 -25 -382 -384 0
27 52 26 385 386 0
27 52 26 385 -386 0
27 52 26 -385 387 0
27 52 26 -385 -387 0
-27 -52 26 388 389 0
-27 -52 26 388 -389 0
-27 -52 26 -388 390 0
-27 -52 26 -388 -390 0
27 -52 -26 391 392 0
27 -52 -26 391 -392 0
27 -52 -26 -391 393 0
27 -52 -26 -391 -393 0
-27 52 -26 394 395 0
-27 52 -26 394 -395 0
-27 52 -26 -394 396 0
-27 52 -26 -394 -396 0
28 51 27 397 398 0
28 51 27 397 -398 0
28 51 27 -397 399 0
28 51 27 -397 -399 0
-28 -51 27 400 401 0
-28 -51 27 400 -401 0
-28 -51 27 -400 402 0
-28 -51 27 -400 -402 0
28 -51 -27 403 404 0
28 -51 -27 403 -404 0
28 -51 -27 -403 405 0
28 -51 -27 -403 -405 0
-28 51 -27 406 407 0
-28 51 -27 406 -407 0
-28 51 -27 -406 408 0
-28 51 -27 -406 -408 0
29 50 28 409 410 0
29 50 28 409 -410 0
29 50 28 -409 411 0
29 50 28 -409 -411 0
-29 -50 28 412 413 0
-29 -50 28 412 -413 0
-29 -50 28 -412 414 0
-29 -50 28 -412 -414 0
29 -50 -28 415 416 0
29 -50 -28 415 -416 0
29 -50 -28 -415 417 0
29 -50 -28 -415 -417 0
-29 50 -28 418 419 0
-29 50 -28 418 -419 0
-29 50 -28 -418 420 0
-29 50 -28 -418 -420 0
30 49 29 421 422 0
30 49 29 421 -422 0
30 49 29 -421 423 0
30 49 29 -421 -423 0
-30 -49 29 424 425 0
-30 -49 29 424 -425 0
-30 -49 29 -424 426 0
-30 -49 29 -424 -426 0
30 -49 -29 427 428 0
30 -49 -29 427 -428 0
30 -49 -29 -427 429 0
30 -49 -29 -427 -429 0
-30 49 -29 430 431 0
-30 49 -29 430 -431 0
-30 49 -29 -430 432 0
-30 49 -29 -430 -432 0
31 48 30 433 434 0
31 48 30 433 -434 0
31 48 30 -433 435 0
31 48 30 -433 -435 0
-31 -48 30 436 437 0
-31 -48 30 436 -437 0
-31 -48 30 -436 438 0
-31 -48 30 -436 -438 0
31 -48 -30 439 440 0
31 -48 -30 439 -440 0
31 -48 -30 -439 441 0
31 -48 -30 -439 -441 0
-31 48 -30 442 443 0
-31 48 -30 442 -443 0
-31 48 -30 -442 444 0
-31 48 -30 -442 -444 0
32 47 31 445 446 0
32 47 31 445 -446 0
32 47 31 -445 447 0
32 47 31 -445 -447 0
-32 -47 31 448 449 0
-32 -47 31 448 -449 0
-32 -47 31 -448 450 0
-32 -47 31 -448 -450 0
32 -47 -31 451 452 0
32 -47 -31 451 -452 0
32 -47 -31 -451 453 0
32 -47 -31 -451 -453 0
-32 47 -31 454 455 0
-32 47 -31 454 -455 0
-32 47 -31 -454 456 0
-32 47 -31 -454 -456 0
33 46 32 457 458 0
33 46 32 457 -458 0
33 46 32 -457 459 0
33 46 32 -457 -459 0
-33 -46 32 460 461 0
-33 -46 32 460 -461 0
-33 -46 32 -460 462 0
-33 -46 32 -460 -462 0
33 -46 -32 463 464 0
33 -46 -32 463 -464 0
33 -46 -32 -463 465 0
33 -46 -32 -463 -465 0
-33 46 -32 466 467 0
-33 46 -32 466 -467 0
-33 46 -32 -466 468 0
-33 46 -32 -466 -468 0
34 45 33 469 470 0
34 45 33 469 -470 0
34 45 33 -469 471 0
34 45 33 -469 -471 0
-34 -45 33 472 473 0
-34 -45 33 472 -473 0
-34 -45 33 -472 474 0
-34 -45 33 -472 -474 0
34 -45 -33 475 476 0
34 -45 -33 475 -476 0
34 -45 -33 -475 477 0
34 -45 -33 -475 -477 0
-34 45 -33 478 479 0
-34 45 -33 478 -479 0
-34 45 -33 -478 480 0
-34 45 -33 -478 -480 0
35 44 34 481 482 0
35 44 34 481 -482 0
35 44 34 -481 483 0
35 44 34 -481 -483 0
-35 -44 34 484 485 0
-35 -44 34 484 -485 0
-35 -44 34 -484 486 0
-35 -44 34 -484 -486 0
35 -44 -34 487 488 0
35 -44 -34 487 -488 0
35 -44 -34 -487 489 0
35 -44 -34 -487 -489 0
-35 44 -34 490 491 0
-35 44 -34 490 -491 0
-35 44 -34 -490 492 0
-35 44 -34 -490 -492 0
36 43 35 493 494 0
36 43 35 493 -494 0
36 43 35 -493 495 0
36 43 35 -493 -495 0
-36 -43 35 496 497 0
-36 -43 35 496 -497 0
-36 -43 35 -496 498 0
-36 -43 35 -496 -498 0
36 -43 -35 499 500 0
36 -43 -35 499 -500 0
36 -43 -35 -499 501 0
36 -43 -35 -499 -501 0
-36 43 -35 502 503 0
-36 43 -35 502 -503 0
-36 43 -35 -502 504 0
-36 43 -35 -502 -504 0
37 42 36 505 506 0
37 42 36 505 -506 0
37 42 36 -505 507 0
37 42 36 -505 -507 0
-37 -42 36 508 509 0
-37 -42 36 508 -509 0
-37 -42 36 -508 510 0
-37 -42 36 -508 -510 0
37 -42 -36 511 512 0
37 -42 -36 511 -512 0
37 -42 -36 -511 513 0
37 -42 -36 -511 -513 0
-37 42 -36 514 515 0
-37 42 -36 514 -515 0
-37 42 -36 -514 516 0
-37 42 -36 -514 -516 0
38 41 37 517 518 0
38 41 37 517 -518 0
38 41 37 -517 519 0
38 41 37 -517 -519 0
-38 -41 37 520 521 0
-38 -41 37 520 -521 0
-38 -41 37 -520 522 0
-38 -41 37 -520 -522 0
38 -41 -37 523 524 0
38 -41 -37 523 -524 0
38 -41 -37 -523 525 0
38 -41 -37 -523 -525 0
-38 41 -37 526 527 0
-38 41 -37 526 -527 0
-38 41 -37 -526 528 0
-38 41 -37 -526 -528 0
39 40 -38 529 530 0
39 40 -38 529 -530 0
39 40 -38 -529 531 0
39 40 -38 -529 -531 0
-39 -40 -38 532 533 0
-39 -40 -38 532 -533 0
-39 -40 -38 -532 534 0
-39 -40 -38 -532 -534 0
39 -40 38 535 536 0
39 -40 38 535 -536 0
39 -40 38 -535 537 0
39 -40 38 -535 -537 0
-39 40 38 538 539 0
-39 40 38 538 -539 0
-39 40 38 -538 540 0
-39 40 38 -538 -540 0

